results_rootrelaxation/bin012_070_032.srr.sol
solution status: optimal solution found
objective value:                     7.02040816326531
_var715_                            0.227891156462585 	(obj:0)
_var730_                            0.129251700680272 	(obj:3)
_var733_                           0.0340136054421761 	(obj:0)
_var744_                            0.112244897959183 	(obj:1)
_var747_                            0.217687074829932 	(obj:0)
_var749_                          0.00680272108843472 	(obj:0)
_var751_                            0.217687074829932 	(obj:1)
_var754_                            0.285714285714286 	(obj:0)
_var763_                            0.258503401360544 	(obj:3)
_var767_                            0.564625850340136 	(obj:0)
_var772_                            0.336734693877551 	(obj:1)
_var776_                            0.217687074829932 	(obj:0)
_var779_                            0.217687074829932 	(obj:0)
_var782_                            0.231292517006803 	(obj:0)
_var786_                            0.217687074829932 	(obj:1)
_var793_                           0.0952380952380942 	(obj:0)
_var803_                           0.0578231292517003 	(obj:1)
_var806_                            0.554421768707483 	(obj:2)
_var807_                            0.064625850340136 	(obj:1)
_var810_                            0.251700680272109 	(obj:0)
_var813_                            0.687074829931973 	(obj:0)
_var819_                            0.469387755102041 	(obj:0)
_var821_                            0.217687074829932 	(obj:0)
_var832_                           0.0238095238095237 	(obj:0)
_var834_                            0.445578231292517 	(obj:0)
_var835_                            0.095238095238095 	(obj:0)
_var837_                            0.391156462585034 	(obj:0)
_var840_                            0.102040816326531 	(obj:2)
_var843_                            0.040816326530612 	(obj:1)
_var844_                            0.217687074829932 	(obj:0)
_var845_                           0.0340136054421761 	(obj:1)
_var848_                            0.153061224489796 	(obj:0)
_var858_                            0.217687074829932 	(obj:0)
_var860_                            0.217687074829932 	(obj:1)
_var863_                            0.166666666666667 	(obj:0)
_var864_                            0.102040816326531 	(obj:1)
_var871_                            0.170068027210884 	(obj:2)
_var872_                          0.00340136054421719 	(obj:2)
_var874_                            0.278911564625851 	(obj:0)
_var875_                            0.183673469387756 	(obj:0)
_var876_                            0.217687074829932 	(obj:1)
_var877_                           0.0136054421768718 	(obj:1)
_var882_                          0.00340136054421861 	(obj:2)
_var884_                            0.312925170068027 	(obj:1)
_var886_                           0.0340136054421767 	(obj:1)
_var892_                          0.00340136054421647 	(obj:2)
_var898_                            0.217687074829932 	(obj:0)
_var900_                           0.0170068027210888 	(obj:2)
_var902_                            0.217687074829932 	(obj:2)
_var905_                            0.289115646258503 	(obj:1)
_var907_                            0.217687074829932 	(obj:1)
_var908_                            0.251700680272108 	(obj:1)
_var909_                           0.0408163265306131 	(obj:1)
_var910_                           0.0578231292517005 	(obj:2)
_var911_                           0.0272108843537413 	(obj:0)
_var914_                             0.17687074829932 	(obj:1)
_var916_                            0.166666666666667 	(obj:3)
_var917_                           0.0238095238095239 	(obj:0)
_var918_                            0.010204081632652 	(obj:0)
_var919_                            0.122448979591838 	(obj:1)
_var921_                           0.0510204081632665 	(obj:0)
_var923_                            0.010204081632653 	(obj:2)
